p edge 100
e 0 57
e 0 58
e 0 64
e 0 65
e 0 93
e 1 26
e 1 41
e 1 69
e 1 77
e 1 92
e 1 94
e 2 21
e 2 24
e 2 26
e 2 31
e 2 36
e 2 47
e 3 27
e 3 30
e 3 36
e 3 41
e 3 83
e 3 94
e 4 6
e 4 43
e 4 52
e 4 66
e 4 85
e 5 44
e 5 58
e 5 59
e 5 67
e 5 89
e 6 17
e 6 52
e 6 85
e 7 15
e 7 32
e 7 34
e 7 37
e 7 62
e 7 70
e 7 74
e 7 80
e 7 81
e 8 22
e 8 42
e 8 68
e 8 96
e 9 46
e 9 97
e 10 61
e 10 72
e 10 73
e 11 12
e 11 21
e 11 39
e 11 57
e 11 71
e 11 83
e 11 88
e 12 57
e 12 88
e 13 27
e 13 56
e 13 61
e 13 71
e 13 83
e 14 17
e 14 54
e 14 95
e 15 35
e 15 62
e 15 63
e 15 81
e 16 18
e 16 19
e 16 40
e 16 55
e 16 75
e 16 79
e 16 98
e 17 54
e 17 85
e 17 95
e 18 42
e 18 79
e 18 96
e 18 98
e 19 55
e 19 69
e 19 77
e 19 92
e 19 98
e 20 32
e 20 62
e 20 87
e 21 36
e 21 39
e 21 47
e 21 83
e 22 42
e 22 45
e 22 68
e 22 82
e 22 98
e 23 28
e 23 50
e 23 59
e 23 70
e 23 74
e 23 99
e 24 26
e 24 36
e 24 94
e 25 27
e 25 49
e 26 31
e 26 45
e 26 69
e 26 94
e 27 30
e 27 49
e 27 56
e 27 83
e 28 32
e 28 74
e 28 99
e 29 33
e 29 38
e 29 86
e 30 41
e 30 77
e 31 45
e 31 47
e 31 82
e 32 62
e 32 74
e 33 38
e 33 43
e 33 66
e 34 37
e 34 53
e 34 80
e 34 89
e 35 38
e 35 62
e 35 63
e 35 86
e 35 87
e 35 97
e 36 83
e 36 94
e 37 59
e 37 70
e 37 89
e 38 43
e 38 86
e 38 97
e 39 57
e 39 60
e 39 64
e 39 90
e 40 55
e 40 75
e 41 77
e 41 94
e 42 96
e 42 98
e 43 46
e 43 66
e 43 97
e 44 58
e 44 76
e 44 93
e 45 69
e 45 82
e 45 98
e 46 52
e 46 97
e 47 60
e 47 82
e 48 78
e 48 80
e 48 84
e 49 56
e 50 59
e 50 67
e 50 72
e 50 88
e 51 60
e 51 90
e 51 91
e 53 76
e 53 78
e 53 80
e 53 89
e 56 61
e 57 58
e 57 64
e 57 67
e 57 88
e 58 67
e 58 93
e 59 67
e 59 70
e 59 89
e 60 90
e 60 91
e 61 71
e 61 73
e 62 87
e 63 80
e 63 81
e 63 84
e 63 86
e 64 65
e 64 90
e 65 90
e 65 93
e 67 88
e 68 82
e 68 91
e 69 92
e 69 98
e 70 74
e 71 73
e 71 83
e 71 88
e 72 88
e 72 99
e 73 88
e 75 79
e 75 96
e 76 89
e 77 92
e 78 80
e 79 96
e 80 81
e 80 84
e 82 91
e 84 86
e 85 95
e 87 97
c k 14
